1 1 2 0
1 -3 4 0
1 -5 -6 0
1 -7 8 0
1 -9 7 0
1 -8 -10 0
1 11 -4 0
1 6 8 0
1 12 13 0
1 14 1 0
1 -4 1 0
1 10 0
1 -4 -1 0
1 -7 -10 0
1 10 -13 0
1 -15 6 0
1 16 -7 0
1 -7 -13 0
1 -17 4 0
1 -18 -13 0
1 -10 -8 0
1 -19 8 0
1 -2 8 0
1 -20 0
1 -3 -13 0
1 16 0
1 -21 8 0
1 3 -4 0
1 1 -4 0
1 21 0
1 22 23 0
1 -5 0
1 8 -3 0
1 7 -1 0
1 7 -9 0
1 -13 -20 0
1 4 8 0
1 24 0
1 25 8 0
1 12 -7 0
1 24 -21 0
1 4 7 0
1 8 -17 0
1 18 4 0
1 1 -13 0
1 -20 3 0
1 26 0
1 -22 13 0
1 -19 -1 0
1 -13 0
1 -7 -24 0
1 -3 -1 0
1 -12 -20 0
1 -19 -3 0
1 -13 -18 0
1 -8 -1 0
1 -7 4 0
1 27 -4 0
1 3 -8 0
1 -7 -4 0
1 -3 7 0
1 3 -7 0
1 -7 -28 0
1 -2 3 0
1 7 1 0
1 3 8 0
1 -4 -19 0
1 -7 -16 0
1 -8 -7 0
1 -4 -6 0
1 3 27 0
1 4 13 0
1 -8 -27 0
1 25 3 0
1 3 13 0
1 7 3 0
1 4 -3 0
1 8 -2 0
1 6 -7 0
1 2 -12 0
1 2 7 0
1 -2 0
1 -24 8 0
1 8 1 0
1 -7 2 0
1 1 -8 0
1 -13 -3 0
1 -8 -13 0
1 -16 13 0
1 4 3 0
1 26 -4 0
1 29 0
1 -17 0
1 -13 -7 0
1 5 7 0
1 -8 13 0
1 -8 0
1 -8 10 0
1 -7 25 0
1 -6 0
1 -13 16 0
1 7 18 0
1 19 0
1 -28 0
1 9 0
1 1 -7 0
1 4 10 0
1 -18 0
1 8 -13 0
1 9 15 0
1 -11 13 0
1 18 -4 0
1 -1 -8 0
1 12 0
1 -8 1 0
2 3 0
1 8 -1 0
1 3 -26 0
1 1 12 0
1 -5 -13 0
1 -10 -13 0
1 17 -7 0
1 3 -13 0
1 13 3 0
2 14 0
1 13 4 -15 0
1 8 18 0
1 4 14 0
1 -7 13 0
1 11 4 0
1 20 -3 0
1 3 -1 0
1 -8 3 0
1 -4 -9 0
1 21 13 0
1 13 8 0
1 -3 12 0
1 27 0
1 -29 -7 0
1 10 3 0
1 16 3 0
1 22 -1 0
1 -4 6 0
1 1 7 0
1 8 13 0
1 -13 3 0
1 -15 -20 0
1 -13 -1 0
1 -1 0
1 -4 7 0
1 -22 -28 0
1 8 4 0
1 -7 -1 0
1 8 -26 0
1 -7 -26 0
1 -8 28 0
1 24 7 0
1 -21 4 0
1 -13 -4 0
1 23 -8 0
1 4 2 0
1 7 -11 0
1 7 4 0
1 -3 2 0
1 17 -4 0
1 3 12 0
1 7 -6 0
1 -23 0
1 -29 -1 0
1 6 13 0
1 -22 0
1 -12 -19 0
1 4 0
1 25 7 0
1 24 22 0
1 -20 7 0
1 1 -7 -13 0
1 -19 1 0
1 -8 -11 0
1 -7 27 0
1 -1 -4 0
1 -4 1 7 0
1 14 26 0
1 1 26 0
1 -8 -19 0
1 1 -3 0
1 4 -13 0
1 -1 4 0
1 -17 -1 0
1 27 4 0
1 3 11 0
1 -1 7 0
1 26 -1 0
1 -13 7 0
1 -4 14 0
1 -16 -13 0
1 -2 7 0
1 -3 13 0
1 13 -7 0
1 14 7 0
1 -3 -4 0
1 -20 -1 0
1 -8 7 0
1 -11 15 0
1 1 20 0
1 -25 0
1 12 -18 0
1 -1 -7 0
1 -4 -5 0
1 3 -11 0
1 6 -18 0
1 -7 1 0
1 -8 -25 0
1 1 -15 0
1 -4 -8 0
1 7 -13 0
1 -28 24 0
1 -1 -26 0
1 3 1 0
1 8 -7 0
1 -13 -11 0
1 -8 -3 0
1 21 -7 0
1 13 4 0
1 -7 -14 0
1 -8 4 0
1 -11 0
1 -13 -3 -4 0
1 -7 5 0
1 4 16 0
1 28 17 0
1 -5 17 0
1 28 -7 0
1 -7 0
1 17 -28 0
1 -28 -7 0
h 30 3 0
2 -30 0
h 31 8 0
2 -31 0
h 32 33 0
1 -32 0
h 34 -35 0
1 -34 0
h 36 -8 0
1 -36 0
h 37 38 0
1 -37 0
h 39 40 0
1 -39 0
h 41 -1 0
1 -41 0
h 42 -3 0
1 -42 0
h 43 44 0
1 -43 0
h 45 -14 0
1 -45 0
h 46 47 0
1 -46 0
h 48 49 0
1 -48 0
h 50 -51 0
1 -50 0
h -13 -15 0
h 13 15 0
h 52 40 0
1 -52 0
h 53 -4 0
2 -53 0
h 54 -3 0
1 -54 0
h 55 -8 0
1 -55 0
h 56 -57 0
1 -56 0
h 58 8 0
2 -58 0
h 59 60 0
1 -59 0
